c "999890.clq"
p edge 201 2960
e 1 17
e 1 19
e 1 20
e 1 22
e 1 28
e 1 67
e 1 104
e 1 144
e 1 156
e 1 200
e 2 17
e 2 18
e 2 23
e 2 28
e 2 31
e 2 33
e 2 43
e 2 47
e 2 51
e 2 78
e 2 81
e 2 93
e 2 124
e 2 126
e 2 129
e 2 135
e 2 141
e 2 143
e 2 161
e 2 162
e 3 17
e 3 18
e 3 19
e 3 20
e 3 21
e 3 22
e 3 35
e 3 37
e 3 40
e 3 45
e 3 46
e 3 48
e 3 51
e 3 54
e 3 56
e 3 70
e 3 71
e 3 81
e 3 88
e 3 96
e 3 102
e 3 103
e 3 110
e 3 119
e 3 121
e 3 126
e 3 129
e 3 130
e 3 132
e 3 134
e 3 142
e 3 162
e 3 164
e 3 177
e 3 178
e 3 183
e 4 17
e 4 18
e 4 20
e 4 21
e 4 22
e 4 23
e 4 25
e 4 26
e 4 29
e 4 30
e 4 31
e 4 32
e 4 33
e 4 43
e 4 44
e 4 46
e 4 56
e 4 65
e 4 66
e 4 72
e 4 76
e 4 85
e 4 92
e 4 99
e 4 112
e 4 119
e 4 124
e 4 130
e 4 159
e 4 172
e 4 173
e 4 187
e 4 190
e 4 191
e 5 17
e 5 18
e 5 19
e 5 25
e 5 26
e 5 27
e 5 30
e 5 34
e 5 36
e 5 37
e 5 41
e 5 43
e 5 58
e 5 60
e 5 62
e 5 63
e 5 70
e 5 71
e 5 82
e 5 84
e 5 85
e 5 92
e 5 93
e 5 100
e 5 101
e 5 106
e 5 108
e 5 116
e 5 118
e 5 140
e 5 143
e 5 152
e 5 160
e 5 163
e 5 200
e 6 17
e 6 18
e 6 19
e 6 20
e 6 21
e 6 24
e 6 25
e 6 27
e 6 28
e 6 29
e 6 30
e 6 36
e 6 39
e 6 40
e 6 42
e 6 45
e 6 46
e 6 62
e 6 79
e 6 90
e 6 99
e 6 100
e 6 120
e 6 160
e 6 170
e 6 172
e 6 196
e 7 17
e 7 18
e 7 19
e 7 20
e 7 21
e 7 22
e 7 23
e 7 24
e 7 27
e 7 28
e 7 29
e 7 30
e 7 32
e 7 33
e 7 37
e 7 46
e 7 47
e 7 48
e 7 51
e 7 53
e 7 57
e 7 60
e 7 66
e 7 67
e 7 73
e 7 76
e 7 78
e 7 81
e 7 82
e 7 87
e 7 90
e 7 92
e 7 93
e 7 101
e 7 106
e 7 107
e 7 109
e 7 125
e 7 140
e 7 141
e 7 147
e 7 157
e 7 166
e 7 174
e 7 177
e 7 181
e 7 185
e 7 198
e 8 17
e 8 18
e 8 19
e 8 20
e 8 21
e 8 22
e 8 24
e 8 26
e 8 27
e 8 28
e 8 30
e 8 31
e 8 32
e 8 42
e 8 44
e 8 45
e 8 46
e 8 51
e 8 59
e 8 67
e 8 69
e 8 71
e 8 72
e 8 73
e 8 91
e 8 92
e 8 98
e 8 99
e 8 105
e 8 115
e 8 130
e 8 135
e 8 166
e 8 171
e 8 173
e 8 180
e 8 190
e 9 17
e 9 18
e 9 19
e 9 20
e 9 21
e 9 22
e 9 23
e 9 24
e 9 26
e 9 27
e 9 30
e 9 33
e 9 39
e 9 40
e 9 42
e 9 44
e 9 47
e 9 49
e 9 54
e 9 62
e 9 65
e 9 86
e 9 88
e 9 93
e 9 100
e 9 108
e 9 112
e 9 116
e 9 118
e 9 128
e 9 129
e 9 132
e 9 135
e 9 138
e 9 143
e 9 154
e 9 158
e 9 176
e 9 179
e 9 180
e 9 192
e 10 17
e 10 18
e 10 19
e 10 20
e 10 21
e 10 22
e 10 23
e 10 24
e 10 25
e 10 29
e 10 31
e 10 35
e 10 45
e 10 47
e 10 48
e 10 50
e 10 53
e 10 54
e 10 56
e 10 58
e 10 59
e 10 61
e 10 66
e 10 71
e 10 74
e 10 86
e 10 87
e 10 96
e 10 99
e 10 109
e 10 120
e 10 125
e 10 134
e 10 136
e 10 149
e 11 17
e 11 18
e 11 19
e 11 20
e 11 21
e 11 22
e 11 23
e 11 24
e 11 26
e 11 29
e 11 32
e 11 34
e 11 35
e 11 38
e 11 43
e 11 53
e 11 64
e 11 71
e 11 89
e 11 102
e 11 103
e 11 111
e 11 122
e 11 128
e 11 141
e 11 158
e 11 164
e 11 167
e 11 180
e 11 182
e 12 17
e 12 18
e 12 19
e 12 20
e 12 21
e 12 22
e 12 23
e 12 24
e 12 25
e 12 29
e 12 30
e 12 34
e 12 37
e 12 40
e 12 53
e 12 59
e 12 62
e 12 64
e 12 72
e 12 74
e 12 87
e 12 88
e 12 90
e 12 101
e 12 102
e 12 127
e 12 142
e 12 148
e 12 149
e 12 154
e 12 166
e 12 167
e 12 174
e 12 179
e 12 194
e 13 17
e 13 18
e 13 19
e 13 20
e 13 21
e 13 22
e 13 23
e 13 29
e 13 35
e 13 38
e 13 39
e 13 40
e 13 42
e 13 49
e 13 52
e 13 64
e 13 73
e 13 94
e 13 106
e 13 109
e 13 110
e 13 137
e 13 155
e 13 178
e 13 189
e 13 194
e 13 195
e 14 17
e 14 18
e 14 19
e 14 23
e 14 24
e 14 25
e 14 26
e 14 27
e 14 35
e 14 38
e 14 42
e 14 43
e 14 48
e 14 50
e 14 52
e 14 55
e 14 56
e 14 59
e 14 64
e 14 65
e 14 67
e 14 75
e 14 83
e 14 87
e 14 92
e 14 94
e 14 95
e 14 98
e 14 100
e 14 101
e 14 116
e 14 127
e 14 139
e 14 153
e 14 160
e 14 178
e 14 184
e 14 189
e 14 198
e 14 200
e 15 17
e 15 18
e 15 19
e 15 20
e 15 21
e 15 22
e 15 23
e 15 25
e 15 28
e 15 33
e 15 34
e 15 39
e 15 40
e 15 43
e 15 51
e 15 54
e 15 59
e 15 67
e 15 77
e 15 80
e 15 81
e 15 82
e 15 91
e 15 114
e 15 123
e 15 126
e 15 156
e 15 182
e 16 17
e 16 18
e 16 19
e 16 20
e 16 21
e 16 23
e 16 24
e 16 25
e 16 26
e 16 27
e 16 32
e 16 33
e 16 34
e 16 35
e 16 36
e 16 37
e 16 38
e 16 40
e 16 42
e 16 55
e 16 59
e 16 66
e 16 67
e 16 68
e 16 69
e 16 70
e 16 75
e 16 76
e 16 81
e 16 96
e 16 101
e 16 116
e 16 117
e 16 120
e 16 123
e 16 124
e 16 140
e 16 141
e 16 143
e 16 144
e 16 149
e 16 151
e 16 155
e 16 159
e 16 165
e 16 170
e 16 183
e 16 184
e 16 186
e 16 201
e 17 18
e 17 19
e 17 20
e 17 21
e 17 22
e 17 23
e 17 24
e 17 25
e 17 26
e 17 27
e 17 28
e 17 31
e 17 32
e 17 34
e 17 36
e 17 37
e 17 38
e 17 39
e 17 41
e 17 43
e 17 51
e 17 54
e 17 57
e 17 61
e 17 62
e 17 63
e 17 65
e 17 69
e 17 74
e 17 75
e 17 76
e 17 77
e 17 79
e 17 80
e 17 81
e 17 82
e 17 83
e 17 85
e 17 87
e 17 88
e 17 89
e 17 91
e 17 92
e 17 95
e 17 100
e 17 104
e 17 109
e 17 114
e 17 115
e 17 116
e 17 118
e 17 121
e 17 125
e 17 126
e 17 129
e 17 132
e 17 133
e 17 142
e 17 147
e 17 148
e 17 150
e 17 154
e 17 161
e 17 164
e 17 170
e 17 172
e 17 177
e 17 178
e 17 180
e 17 182
e 17 183
e 17 184
e 17 185
e 17 188
e 17 192
e 17 198
e 18 19
e 18 20
e 18 21
e 18 22
e 18 23
e 18 24
e 18 25
e 18 26
e 18 28
e 18 29
e 18 30
e 18 31
e 18 32
e 18 33
e 18 34
e 18 35
e 18 36
e 18 37
e 18 41
e 18 44
e 18 45
e 18 47
e 18 49
e 18 50
e 18 51
e 18 52
e 18 55
e 18 56
e 18 61
e 18 63
e 18 64
e 18 65
e 18 69
e 18 71
e 18 73
e 18 75
e 18 77
e 18 78
e 18 81
e 18 88
e 18 89
e 18 90
e 18 92
e 18 95
e 18 96
e 18 97
e 18 98
e 18 99
e 18 100
e 18 102
e 18 103
e 18 105
e 18 107
e 18 108
e 18 110
e 18 112
e 18 114
e 18 117
e 18 119
e 18 124
e 18 129
e 18 130
e 18 132
e 18 135
e 18 137
e 18 138
e 18 140
e 18 141
e 18 143
e 18 151
e 18 152
e 18 153
e 18 156
e 18 157
e 18 158
e 18 162
e 18 163
e 18 168
e 18 169
e 18 171
e 18 172
e 18 174
e 18 175
e 18 176
e 18 181
e 18 182
e 18 186
e 18 187
e 18 196
e 18 199
e 19 20
e 19 21
e 19 22
e 19 23
e 19 24
e 19 25
e 19 26
e 19 27
e 19 28
e 19 29
e 19 30
e 19 32
e 19 33
e 19 34
e 19 35
e 19 36
e 19 38
e 19 40
e 19 42
e 19 43
e 19 44
e 19 46
e 19 49
e 19 50
e 19 51
e 19 52
e 19 53
e 19 56
e 19 59
e 19 60
e 19 61
e 19 63
e 19 64
e 19 65
e 19 68
e 19 70
e 19 73
e 19 75
e 19 80
e 19 81
e 19 88
e 19 94
e 19 95
e 19 101
e 19 103
e 19 105
e 19 113
e 19 115
e 19 116
e 19 119
e 19 121
e 19 122
e 19 123
e 19 124
e 19 136
e 19 141
e 19 146
e 19 149
e 19 150
e 19 152
e 19 153
e 19 160
e 19 161
e 19 165
e 19 166
e 19 181
e 19 186
e 19 195
e 19 197
e 20 21
e 20 22
e 20 23
e 20 24
e 20 25
e 20 26
e 20 27
e 20 28
e 20 29
e 20 30
e 20 31
e 20 32
e 20 33
e 20 36
e 20 37
e 20 38
e 20 39
e 20 46
e 20 47
e 20 48
e 20 50
e 20 54
e 20 55
e 20 57
e 20 58
e 20 59
e 20 60
e 20 61
e 20 62
e 20 68
e 20 70
e 20 71
e 20 72
e 20 73
e 20 77
e 20 78
e 20 79
e 20 84
e 20 85
e 20 86
e 20 87
e 20 91
e 20 95
e 20 97
e 20 99
e 20 104
e 20 105
e 20 112
e 20 115
e 20 118
e 20 128
e 20 133
e 20 134
e 20 138
e 20 143
e 20 146
e 20 150
e 20 155
e 20 156
e 20 159
e 20 168
e 20 170
e 20 173
e 20 175
e 20 176
e 20 183
e 20 191
e 20 192
e 20 193
e 20 194
e 20 199
e 21 22
e 21 23
e 21 24
e 21 25
e 21 26
e 21 27
e 21 28
e 21 29
e 21 31
e 21 32
e 21 33
e 21 34
e 21 35
e 21 36
e 21 37
e 21 39
e 21 41
e 21 42
e 21 44
e 21 45
e 21 48
e 21 49
e 21 52
e 21 58
e 21 59
e 21 61
e 21 67
e 21 72
e 21 78
e 21 84
e 21 86
e 21 88
e 21 89
e 21 98
e 21 99
e 21 102
e 21 104
e 21 113
e 21 114
e 21 115
e 21 117
e 21 118
e 21 123
e 21 124
e 21 128
e 21 131
e 21 135
e 21 137
e 21 139
e 21 143
e 21 144
e 21 149
e 21 169
e 21 171
e 21 173
e 21 174
e 21 178
e 21 179
e 21 181
e 21 188
e 21 195
e 21 197
e 21 201
e 22 24
e 22 25
e 22 26
e 22 27
e 22 28
e 22 29
e 22 30
e 22 31
e 22 33
e 22 34
e 22 35
e 22 40
e 22 41
e 22 42
e 22 43
e 22 45
e 22 46
e 22 47
e 22 48
e 22 53
e 22 55
e 22 60
e 22 61
e 22 63
e 22 70
e 22 72
e 22 73
e 22 76
e 22 80
e 22 83
e 22 85
e 22 91
e 22 92
e 22 103
e 22 106
e 22 107
e 22 114
e 22 121
e 22 129
e 22 133
e 22 136
e 22 138
e 22 142
e 22 147
e 22 152
e 22 168
e 22 170
e 22 171
e 22 173
e 22 177
e 22 178
e 22 183
e 22 188
e 22 201
e 23 24
e 23 25
e 23 26
e 23 27
e 23 29
e 23 30
e 23 31
e 23 32
e 23 34
e 23 36
e 23 38
e 23 40
e 23 41
e 23 42
e 23 43
e 23 45
e 23 46
e 23 47
e 23 49
e 23 50
e 23 52
e 23 53
e 23 55
e 23 56
e 23 57
e 23 58
e 23 61
e 23 62
e 23 64
e 23 66
e 23 70
e 23 72
e 23 73
e 23 77
e 23 79
e 23 81
e 23 85
e 23 87
e 23 90
e 23 91
e 23 93
e 23 97
e 23 105
e 23 110
e 23 112
e 23 114
e 23 119
e 23 124
e 23 126
e 23 135
e 23 136
e 23 138
e 23 142
e 23 143
e 23 144
e 23 145
e 23 151
e 23 154
e 23 163
e 23 174
e 23 178
e 23 185
e 23 189
e 23 192
e 23 194
e 23 201
e 24 25
e 24 26
e 24 27
e 24 28
e 24 30
e 24 31
e 24 33
e 24 34
e 24 35
e 24 37
e 24 39
e 24 40
e 24 41
e 24 45
e 24 49
e 24 50
e 24 52
e 24 54
e 24 61
e 24 74
e 24 80
e 24 83
e 24 87
e 24 94
e 24 96
e 24 108
e 24 109
e 24 110
e 24 121
e 24 123
e 24 141
e 24 144
e 24 147
e 24 148
e 24 162
e 24 169
e 24 177
e 24 178
e 24 193
e 24 195
e 25 26
e 25 27
e 25 28
e 25 29
e 25 30
e 25 31
e 25 32
e 25 33
e 25 34
e 25 36
e 25 38
e 25 39
e 25 41
e 25 42
e 25 44
e 25 46
e 25 50
e 25 53
e 25 55
e 25 57
e 25 58
e 25 60
e 25 67
e 25 69
e 25 80
e 25 81
e 25 92
e 25 93
e 25 95
e 25 98
e 25 99
e 25 105
e 25 110
e 25 111
e 25 114
e 25 122
e 25 123
e 25 124
e 25 127
e 25 128
e 25 130
e 25 133
e 25 141
e 25 144
e 25 146
e 25 151
e 25 152
e 25 153
e 25 156
e 25 158
e 25 159
e 25 167
e 25 184
e 25 186
e 25 193
e 25 196
e 25 197
e 26 27
e 26 28
e 26 30
e 26 31
e 26 32
e 26 33
e 26 35
e 26 36
e 26 37
e 26 38
e 26 39
e 26 46
e 26 52
e 26 53
e 26 55
e 26 57
e 26 58
e 26 61
e 26 62
e 26 63
e 26 64
e 26 65
e 26 67
e 26 78
e 26 80
e 26 82
e 26 85
e 26 86
e 26 88
e 26 100
e 26 102
e 26 104
e 26 106
e 26 107
e 26 109
e 26 110
e 26 115
e 26 117
e 26 119
e 26 122
e 26 125
e 26 127
e 26 128
e 26 151
e 26 155
e 26 162
e 26 166
e 26 171
e 26 176
e 26 183
e 26 191
e 26 194
e 26 195
e 27 28
e 27 29
e 27 31
e 27 32
e 27 33
e 27 38
e 27 39
e 27 40
e 27 41
e 27 42
e 27 43
e 27 44
e 27 45
e 27 46
e 27 47
e 27 49
e 27 50
e 27 55
e 27 72
e 27 85
e 27 86
e 27 89
e 27 91
e 27 100
e 27 104
e 27 106
e 27 111
e 27 112
e 27 113
e 27 114
e 27 117
e 27 126
e 27 136
e 27 137
e 27 139
e 27 140
e 27 143
e 27 154
e 27 166
e 27 169
e 27 174
e 27 177
e 27 190
e 27 201
e 28 29
e 28 30
e 28 31
e 28 32
e 28 35
e 28 36
e 28 38
e 28 42
e 28 43
e 28 45
e 28 48
e 28 55
e 28 57
e 28 59
e 28 61
e 28 63
e 28 64
e 28 66
e 28 75
e 28 78
e 28 82
e 28 83
e 28 84
e 28 85
e 28 87
e 28 89
e 28 90
e 28 92
e 28 98
e 28 100
e 28 104
e 28 105
e 28 110
e 28 111
e 28 112
e 28 115
e 28 117
e 28 118
e 28 119
e 28 128
e 28 135
e 28 139
e 28 140
e 28 145
e 28 157
e 28 168
e 28 169
e 28 172
e 28 181
e 28 186
e 28 187
e 28 193
e 28 194
e 28 195
e 28 200
e 29 33
e 29 34
e 29 37
e 29 40
e 29 41
e 29 44
e 29 48
e 29 49
e 29 52
e 29 55
e 29 56
e 29 57
e 29 62
e 29 64
e 29 75
e 29 84
e 29 89
e 29 93
e 29 95
e 29 102
e 29 109
e 29 112
e 29 114
e 29 120
e 29 122
e 29 123
e 29 125
e 29 127
e 29 142
e 29 146
e 29 147
e 29 150
e 29 157
e 29 158
e 29 163
e 29 175
e 29 179
e 29 180
e 29 182
e 29 188
e 29 191
e 29 195
e 29 197
e 30 31
e 30 35
e 30 36
e 30 39
e 30 41
e 30 42
e 30 47
e 30 49
e 30 50
e 30 53
e 30 54
e 30 58
e 30 68
e 30 69
e 30 71
e 30 78
e 30 81
e 30 82
e 30 84
e 30 97
e 30 100
e 30 103
e 30 108
e 30 109
e 30 112
e 30 115
e 30 117
e 30 121
e 30 131
e 30 133
e 30 137
e 30 138
e 30 140
e 30 148
e 30 150
e 30 157
e 30 178
e 30 183
e 30 187
e 30 192
e 30 193
e 30 196
e 31 32
e 31 34
e 31 35
e 31 36
e 31 39
e 31 41
e 31 43
e 31 45
e 31 47
e 31 50
e 31 51
e 31 52
e 31 59
e 31 61
e 31 65
e 31 69
e 31 70
e 31 71
e 31 72
e 31 74
e 31 75
e 31 76
e 31 77
e 31 78
e 31 80
e 31 90
e 31 94
e 31 95
e 31 97
e 31 99
e 31 105
e 31 112
e 31 114
e 31 115
e 31 122
e 31 125
e 31 128
e 31 134
e 31 137
e 31 139
e 31 141
e 31 144
e 31 145
e 31 151
e 31 155
e 31 158
e 31 165
e 31 174
e 31 176
e 31 182
e 31 184
e 31 186
e 31 192
e 31 194
e 31 198
e 31 199
e 32 34
e 32 35
e 32 37
e 32 38
e 32 41
e 32 42
e 32 43
e 32 44
e 32 48
e 32 53
e 32 55
e 32 56
e 32 57
e 32 60
e 32 62
e 32 63
e 32 65
e 32 68
e 32 75
e 32 76
e 32 79
e 32 97
e 32 101
e 32 103
e 32 111
e 32 122
e 32 127
e 32 129
e 32 130
e 32 133
e 32 139
e 32 152
e 32 154
e 32 155
e 32 157
e 32 167
e 32 170
e 32 171
e 32 187
e 32 189
e 33 36
e 33 37
e 33 40
e 33 41
e 33 44
e 33 45
e 33 46
e 33 48
e 33 49
e 33 51
e 33 52
e 33 55
e 33 58
e 33 63
e 33 69
e 33 70
e 33 73
e 33 79
e 33 80
e 33 81
e 33 82
e 33 83
e 33 88
e 33 91
e 33 95
e 33 97
e 33 101
e 33 103
e 33 107
e 33 109
e 33 110
e 33 111
e 33 119
e 33 120
e 33 124
e 33 125
e 33 131
e 33 132
e 33 136
e 33 137
e 33 138
e 33 147
e 33 166
e 33 167
e 33 170
e 33 173
e 33 176
e 33 185
e 33 187
e 33 188
e 33 200
e 34 37
e 34 38
e 34 39
e 34 41
e 34 47
e 34 52
e 34 53
e 34 54
e 34 57
e 34 58
e 34 59
e 34 62
e 34 68
e 34 85
e 34 96
e 34 108
e 34 124
e 34 129
e 34 133
e 34 167
e 34 183
e 34 199
e 35 36
e 35 38
e 35 44
e 35 46
e 35 48
e 35 49
e 35 51
e 35 53
e 35 54
e 35 57
e 35 60
e 35 62
e 35 63
e 35 66
e 35 72
e 35 74
e 35 77
e 35 82
e 35 83
e 35 84
e 35 87
e 35 88
e 35 91
e 35 93
e 35 95
e 35 98
e 35 100
e 35 107
e 35 114
e 35 116
e 35 117
e 35 120
e 35 121
e 35 137
e 35 140
e 35 143
e 35 149
e 35 156
e 35 187
e 35 192
e 35 197
e 36 37
e 36 38
e 36 39
e 36 40
e 36 42
e 36 44
e 36 45
e 36 47
e 36 48
e 36 49
e 36 50
e 36 51
e 36 59
e 36 62
e 36 68
e 36 70
e 36 72
e 36 77
e 36 78
e 36 82
e 36 87
e 36 97
e 36 110
e 36 111
e 36 121
e 36 129
e 36 135
e 36 173
e 36 175
e 36 180
e 36 184
e 36 188
e 36 189
e 37 39
e 37 44
e 37 48
e 37 55
e 37 56
e 37 65
e 37 67
e 37 74
e 37 89
e 37 96
e 37 104
e 37 107
e 37 108
e 37 114
e 37 115
e 37 116
e 37 133
e 37 135
e 37 149
e 37 151
e 37 156
e 37 163
e 37 173
e 37 180
e 37 181
e 37 185
e 38 40
e 38 46
e 38 51
e 38 54
e 38 57
e 38 66
e 38 72
e 38 73
e 38 80
e 38 82
e 38 84
e 38 96
e 38 107
e 38 117
e 38 120
e 38 137
e 38 139
e 38 145
e 38 149
e 38 152
e 38 156
e 38 157
e 38 160
e 38 165
e 38 172
e 38 173
e 38 177
e 38 184
e 38 188
e 38 192
e 38 194
e 38 195
e 38 201
e 39 43
e 39 45
e 39 48
e 39 49
e 39 52
e 39 58
e 39 64
e 39 66
e 39 68
e 39 69
e 39 77
e 39 79
e 39 83
e 39 86
e 39 89
e 39 90
e 39 93
e 39 136
e 39 142
e 39 147
e 39 151
e 39 160
e 39 179
e 40 41
e 40 43
e 40 44
e 40 49
e 40 51
e 40 58
e 40 63
e 40 67
e 40 73
e 40 79
e 40 94
e 40 97
e 40 99
e 40 115
e 40 147
e 40 169
e 41 44
e 41 46
e 41 47
e 41 50
e 41 51
e 41 52
e 41 56
e 41 66
e 41 75
e 41 77
e 41 78
e 41 81
e 41 84
e 41 88
e 41 89
e 41 90
e 41 93
e 41 97
e 41 102
e 41 112
e 41 126
e 41 132
e 41 143
e 41 145
e 41 151
e 41 154
e 41 165
e 41 168
e 41 187
e 41 196
e 42 45
e 42 49
e 42 59
e 42 60
e 42 61
e 42 63
e 42 64
e 42 67
e 42 85
e 42 88
e 42 93
e 42 102
e 42 107
e 42 108
e 42 113
e 42 116
e 42 120
e 42 130
e 42 134
e 42 139
e 42 153
e 42 156
e 42 166
e 42 191
e 43 47
e 43 50
e 43 52
e 43 53
e 43 58
e 43 61
e 43 66
e 43 67
e 43 69
e 43 74
e 43 75
e 43 89
e 43 91
e 43 103
e 43 116
e 43 117
e 43 122
e 43 130
e 43 139
e 43 141
e 43 153
e 43 158
e 43 159
e 43 160
e 43 163
e 43 182
e 43 193
e 43 199
e 43 201
e 44 50
e 44 52
e 44 54
e 44 65
e 44 66
e 44 69
e 44 70
e 44 71
e 44 94
e 44 125
e 44 132
e 44 133
e 44 145
e 44 146
e 44 160
e 44 162
e 45 47
e 45 53
e 45 54
e 45 56
e 45 62
e 45 64
e 45 67
e 45 69
e 45 83
e 45 85
e 45 90
e 45 96
e 45 98
e 45 111
e 45 121
e 45 122
e 45 146
e 45 170
e 45 192
e 46 53
e 46 54
e 46 58
e 46 60
e 46 63
e 46 72
e 46 98
e 46 106
e 46 111
e 46 136
e 46 140
e 46 152
e 46 159
e 46 160
e 46 175
e 46 188
e 46 196
e 47 48
e 47 50
e 47 54
e 47 57
e 47 60
e 47 69
e 47 71
e 47 73
e 47 75
e 47 76
e 47 78
e 47 83
e 47 86
e 47 93
e 47 100
e 47 108
e 47 112
e 47 116
e 47 118
e 47 120
e 47 127
e 47 131
e 47 135
e 47 136
e 47 137
e 47 146
e 47 152
e 47 153
e 47 160
e 47 163
e 47 170
e 47 174
e 47 188
e 47 189
e 47 196
e 47 198
e 48 57
e 48 58
e 48 59
e 48 60
e 48 63
e 48 68
e 48 71
e 48 79
e 48 80
e 48 93
e 48 103
e 48 105
e 48 109
e 48 110
e 48 114
e 48 115
e 48 128
e 48 132
e 48 143
e 48 144
e 48 150
e 48 157
e 48 160
e 48 198
e 49 51
e 49 55
e 49 56
e 49 60
e 49 64
e 49 67
e 49 73
e 49 74
e 49 75
e 49 76
e 49 94
e 49 99
e 49 105
e 49 106
e 49 109
e 49 113
e 49 118
e 49 136
e 49 149
e 49 166
e 49 167
e 49 199
e 50 57
e 50 58
e 50 62
e 50 68
e 50 69
e 50 83
e 50 89
e 50 104
e 50 117
e 50 129
e 50 139
e 50 146
e 50 148
e 50 149
e 50 156
e 50 157
e 50 170
e 50 196
e 50 197
e 50 201
e 51 56
e 51 63
e 51 66
e 51 68
e 51 70
e 51 77
e 51 79
e 51 80
e 51 94
e 51 98
e 51 104
e 51 108
e 51 109
e 51 132
e 51 144
e 51 148
e 51 165
e 51 179
e 51 184
e 51 190
e 51 196
e 51 200
e 52 55
e 52 56
e 52 59
e 52 61
e 52 66
e 52 67
e 52 71
e 52 74
e 52 81
e 52 82
e 52 85
e 52 88
e 52 98
e 52 99
e 52 107
e 52 113
e 52 115
e 52 126
e 52 139
e 52 144
e 52 145
e 52 172
e 52 180
e 52 184
e 52 189
e 52 193
e 53 54
e 53 57
e 53 71
e 53 73
e 53 74
e 53 77
e 53 84
e 53 89
e 53 99
e 53 102
e 53 105
e 53 118
e 53 124
e 53 145
e 53 150
e 53 170
e 53 175
e 53 177
e 53 178
e 53 190
e 53 198
e 54 60
e 54 65
e 54 68
e 54 77
e 54 79
e 54 84
e 54 86
e 54 96
e 54 103
e 54 104
e 54 105
e 54 106
e 54 117
e 54 122
e 54 126
e 54 142
e 54 166
e 54 191
e 54 195
e 55 56
e 55 61
e 55 71
e 55 76
e 55 88
e 55 108
e 55 110
e 55 119
e 55 131
e 55 136
e 55 140
e 55 146
e 55 150
e 55 153
e 55 155
e 55 161
e 55 191
e 55 194
e 56 60
e 56 63
e 56 68
e 56 70
e 56 73
e 56 77
e 56 85
e 56 92
e 56 103
e 56 110
e 56 115
e 56 119
e 56 127
e 56 142
e 56 146
e 56 148
e 56 162
e 56 168
e 56 173
e 56 176
e 56 184
e 56 190
e 56 198
e 57 60
e 57 64
e 57 74
e 57 79
e 57 104
e 57 106
e 57 127
e 57 141
e 57 143
e 57 145
e 57 179
e 57 192
e 57 198
e 57 201
e 58 65
e 58 76
e 58 78
e 58 80
e 58 83
e 58 86
e 58 94
e 58 101
e 58 111
e 58 119
e 58 123
e 58 126
e 58 136
e 58 148
e 58 150
e 58 155
e 58 179
e 58 180
e 58 187
e 58 193
e 58 199
e 58 200
e 59 62
e 59 64
e 59 68
e 59 72
e 59 78
e 59 82
e 59 84
e 59 92
e 59 113
e 59 114
e 59 116
e 59 120
e 59 135
e 59 138
e 59 157
e 59 179
e 59 196
e 59 201
e 60 75
e 60 76
e 60 83
e 60 91
e 60 116
e 60 141
e 60 149
e 60 169
e 60 179
e 60 189
e 60 191
e 60 192
e 61 68
e 61 73
e 61 74
e 61 80
e 61 81
e 61 82
e 61 94
e 61 95
e 61 96
e 61 99
e 61 105
e 61 106
e 61 107
e 61 123
e 61 126
e 61 135
e 61 147
e 61 152
e 61 154
e 61 155
e 61 157
e 61 164
e 61 167
e 61 185
e 62 65
e 62 66
e 62 87
e 62 105
e 62 106
e 62 111
e 62 122
e 62 130
e 62 131
e 62 132
e 62 145
e 62 152
e 62 158
e 62 167
e 62 176
e 62 199
e 63 65
e 63 66
e 63 71
e 63 75
e 63 78
e 63 79
e 63 80
e 63 84
e 63 85
e 63 86
e 63 87
e 63 89
e 63 101
e 63 111
e 63 126
e 63 153
e 63 156
e 63 158
e 63 163
e 63 168
e 63 199
e 64 65
e 64 69
e 64 74
e 64 75
e 64 86
e 64 94
e 64 104
e 64 106
e 64 123
e 64 128
e 64 143
e 64 159
e 64 171
e 64 175
e 65 68
e 65 69
e 65 70
e 65 72
e 65 86
e 65 93
e 65 97
e 65 107
e 65 114
e 65 118
e 65 125
e 65 151
e 65 162
e 65 168
e 65 174
e 65 191
e 66 70
e 66 72
e 66 79
e 66 90
e 66 101
e 66 102
e 66 120
e 66 128
e 66 129
e 66 138
e 66 195
e 67 76
e 67 81
e 67 88
e 67 91
e 67 94
e 67 95
e 67 97
e 67 98
e 67 113
e 67 118
e 67 125
e 67 127
e 67 128
e 67 146
e 67 170
e 68 70
e 68 84
e 68 96
e 68 97
e 68 101
e 68 102
e 68 107
e 68 111
e 68 130
e 68 136
e 68 137
e 68 148
e 69 86
e 69 95
e 69 124
e 69 133
e 69 147
e 69 155
e 69 163
e 69 164
e 69 167
e 69 184
e 69 197
e 70 74
e 70 76
e 70 83
e 70 90
e 70 94
e 70 99
e 70 103
e 70 105
e 70 107
e 70 108
e 70 109
e 70 113
e 70 121
e 70 134
e 70 138
e 70 141
e 70 144
e 70 147
e 70 176
e 70 189
e 70 194
e 71 76
e 71 77
e 71 79
e 71 82
e 71 91
e 71 92
e 71 98
e 71 113
e 71 123
e 71 125
e 71 132
e 71 134
e 71 148
e 71 150
e 71 161
e 71 162
e 71 163
e 71 165
e 71 173
e 71 176
e 71 179
e 71 181
e 71 185
e 71 190
e 71 201
e 72 77
e 72 89
e 72 95
e 72 108
e 72 118
e 72 136
e 72 147
e 72 150
e 72 161
e 72 162
e 72 197
e 73 74
e 73 88
e 73 116
e 73 118
e 73 127
e 73 130
e 73 131
e 73 134
e 73 165
e 73 171
e 73 180
e 73 181
e 74 76
e 74 78
e 74 87
e 74 90
e 74 96
e 74 100
e 74 107
e 74 118
e 74 126
e 74 135
e 74 139
e 74 145
e 74 146
e 74 148
e 74 157
e 74 165
e 74 168
e 74 171
e 74 175
e 74 181
e 74 183
e 74 189
e 75 79
e 75 83
e 75 96
e 75 98
e 75 123
e 75 131
e 75 165
e 75 188
e 75 189
e 76 82
e 76 90
e 76 91
e 76 92
e 76 103
e 76 109
e 76 119
e 76 121
e 76 122
e 76 140
e 76 141
e 76 146
e 76 151
e 76 153
e 76 170
e 76 181
e 76 187
e 76 193
e 77 80
e 77 84
e 77 87
e 77 90
e 77 102
e 77 117
e 77 128
e 77 138
e 77 147
e 77 196
e 78 96
e 78 101
e 78 119
e 78 120
e 78 121
e 78 122
e 78 140
e 78 145
e 78 159
e 78 160
e 78 177
e 78 184
e 78 185
e 78 190
e 79 122
e 79 125
e 79 133
e 79 139
e 79 192
e 79 199
e 80 87
e 80 89
e 80 91
e 80 110
e 80 113
e 80 122
e 80 133
e 80 170
e 80 172
e 80 185
e 80 190
e 81 93
e 81 97
e 81 98
e 81 111
e 81 116
e 81 127
e 81 129
e 81 168
e 81 182
e 81 197
e 82 83
e 82 85
e 82 121
e 82 164
e 82 178
e 82 186
e 83 84
e 83 90
e 83 93
e 83 95
e 83 112
e 83 118
e 83 130
e 83 131
e 83 132
e 83 144
e 83 154
e 83 159
e 83 176
e 83 183
e 83 186
e 83 190
e 84 86
e 84 99
e 84 112
e 84 131
e 84 134
e 84 164
e 84 166
e 84 185
e 84 195
e 85 86
e 85 91
e 85 94
e 85 97
e 85 101
e 85 103
e 85 113
e 85 120
e 85 125
e 85 131
e 85 132
e 85 138
e 85 139
e 85 142
e 85 147
e 85 148
e 85 175
e 85 181
e 85 193
e 86 92
e 86 100
e 86 124
e 86 144
e 86 150
e 86 159
e 86 160
e 86 162
e 86 175
e 86 177
e 86 186
e 87 97
e 87 98
e 87 103
e 87 128
e 87 142
e 87 143
e 87 163
e 87 164
e 87 177
e 87 183
e 88 92
e 88 121
e 88 122
e 88 142
e 88 152
e 88 156
e 88 160
e 88 165
e 88 167
e 88 171
e 88 173
e 88 177
e 88 189
e 89 94
e 89 96
e 89 116
e 89 117
e 89 120
e 89 126
e 89 144
e 89 145
e 89 149
e 89 155
e 89 165
e 90 101
e 90 130
e 90 131
e 90 150
e 90 163
e 90 164
e 90 168
e 91 114
e 91 121
e 91 126
e 91 147
e 91 154
e 91 158
e 91 162
e 91 182
e 91 187
e 92 102
e 92 131
e 92 144
e 92 151
e 92 155
e 92 181
e 92 194
e 93 101
e 93 104
e 93 109
e 93 133
e 93 154
e 93 155
e 93 171
e 93 177
e 94 95
e 94 100
e 94 110
e 94 111
e 94 113
e 94 130
e 94 150
e 94 157
e 94 162
e 94 164
e 94 167
e 94 177
e 95 100
e 95 117
e 95 119
e 95 125
e 95 130
e 95 134
e 95 138
e 95 189
e 95 192
e 95 195
e 95 196
e 96 102
e 96 104
e 96 108
e 96 125
e 96 129
e 96 134
e 96 140
e 96 158
e 96 165
e 96 178
e 97 106
e 97 108
e 97 112
e 97 141
e 97 153
e 97 158
e 97 173
e 97 185
e 97 200
e 98 102
e 98 105
e 98 106
e 98 142
e 98 186
e 98 191
e 98 196
e 99 134
e 99 188
e 99 191
e 100 106
e 100 130
e 100 148
e 100 161
e 100 190
e 100 193
e 100 196
e 101 104
e 101 107
e 101 109
e 101 110
e 101 113
e 101 124
e 101 145
e 101 153
e 101 176
e 101 178
e 101 188
e 101 199
e 101 201
e 102 112
e 102 113
e 102 136
e 102 157
e 102 160
e 102 172
e 102 179
e 102 182
e 102 193
e 102 197
e 103 111
e 103 115
e 103 134
e 103 148
e 103 171
e 104 127
e 104 132
e 104 134
e 104 140
e 104 156
e 104 159
e 104 176
e 104 182
e 105 119
e 105 120
e 106 108
e 106 137
e 106 146
e 106 169
e 107 123
e 107 128
e 107 133
e 107 138
e 107 149
e 107 155
e 107 167
e 108 120
e 108 152
e 108 153
e 108 169
e 109 123
e 109 124
e 109 127
e 109 135
e 109 141
e 109 149
e 109 164
e 109 185
e 110 125
e 110 127
e 110 142
e 110 146
e 110 151
e 111 113
e 111 119
e 111 150
e 111 163
e 111 165
e 111 175
e 111 181
e 112 115
e 112 126
e 112 134
e 112 165
e 112 166
e 112 194
e 112 197
e 112 198
e 113 117
e 113 123
e 113 129
e 113 153
e 113 164
e 113 171
e 114 129
e 114 149
e 114 152
e 114 176
e 115 147
e 115 161
e 115 167
e 115 169
e 115 174
e 115 180
e 116 118
e 116 137
e 116 154
e 116 161
e 116 195
e 116 200
e 117 148
e 117 152
e 117 156
e 117 168
e 117 174
e 117 180
e 117 181
e 117 188
e 117 201
e 118 134
e 118 137
e 118 140
e 118 153
e 118 169
e 118 171
e 118 180
e 118 186
e 118 195
e 119 127
e 119 149
e 119 163
e 119 172
e 119 175
e 119 201
e 120 121
e 120 123
e 120 124
e 120 133
e 120 159
e 120 170
e 120 173
e 121 142
e 121 158
e 121 161
e 121 166
e 121 181
e 122 132
e 122 137
e 122 169
e 122 178
e 122 179
e 122 180
e 122 192
e 122 194
e 123 154
e 123 161
e 123 183
e 123 186
e 123 197
e 123 200
e 124 131
e 124 133
e 124 155
e 124 170
e 124 171
e 124 186
e 125 178
e 125 191
e 126 128
e 126 138
e 126 154
e 126 156
e 126 186
e 126 193
e 127 129
e 127 137
e 127 139
e 127 164
e 127 174
e 127 194
e 128 172
e 128 185
e 128 194
e 129 131
e 129 136
e 129 161
e 129 168
e 129 191
e 129 198
e 129 200
e 130 131
e 130 132
e 130 139
e 130 140
e 130 143
e 130 161
e 130 182
e 130 197
e 131 150
e 131 159
e 131 166
e 131 188
e 131 190
e 131 196
e 131 200
e 132 135
e 132 151
e 132 155
e 132 175
e 132 199
e 133 135
e 133 142
e 133 183
e 133 184
e 133 198
e 134 157
e 134 172
e 134 188
e 134 193
e 135 148
e 135 163
e 135 168
e 136 144
e 136 145
e 136 152
e 136 154
e 136 161
e 136 167
e 136 174
e 136 187
e 136 189
e 136 197
e 136 200
e 136 201
e 137 138
e 137 153
e 137 169
e 137 172
e 137 179
e 137 201
e 138 157
e 138 176
e 138 198
e 139 154
e 139 163
e 139 199
e 140 162
e 140 182
e 140 184
e 140 186
e 141 145
e 141 146
e 141 151
e 141 167
e 142 172
e 142 175
e 142 177
e 143 164
e 144 159
e 144 187
e 145 158
e 145 165
e 145 200
e 146 187
e 147 156
e 147 179
e 147 187
e 147 190
e 147 198
e 148 151
e 148 158
e 148 159
e 148 180
e 148 182
e 148 184
e 148 194
e 148 195
e 150 162
e 151 164
e 151 174
e 151 191
e 152 159
e 152 166
e 152 169
e 152 200
e 153 183
e 154 172
e 154 199
e 155 158
e 155 160
e 155 162
e 155 164
e 155 169
e 155 175
e 155 181
e 155 187
e 156 171
e 156 176
e 156 178
e 156 179
e 157 161
e 157 189
e 157 195
e 157 199
e 158 166
e 158 174
e 158 190
e 158 192
e 159 161
e 159 177
e 160 173
e 160 197
e 162 182
e 163 168
e 163 169
e 164 168
e 164 198
e 166 172
e 166 175
e 166 185
e 166 186
e 167 182
e 167 185
e 169 188
e 170 189
e 170 190
e 171 173
e 171 190
e 171 193
e 172 191
e 173 174
e 173 183
e 174 197
e 174 198
e 175 180
e 176 191
e 176 196
e 179 184
e 179 193
e 180 183
e 181 185
e 190 192
e 194 199
e 197 200
